
 102   30
  10   10   10   10   10   10   10   10   10   10   10   10   10   10   10   10   10   10   10   10   10   10   10   10   10   10   10   10   10   10

   0   0   0   0   0   0   0   0   0   0   0   0   0   0   0   0   0   0   0   0   0   0   0   0   0   0   0   0   0   0   0  28 2 3 4 5 6 7 8 9 10 11 12 13 14 15 16 17 18 21 23 24 25 26 27 31 33 34 35 38 
   8   1   0   0   0   0   1   0   2   0   0   0   0   0   0   0   0   0   1   0   0   0   2   0   0   0   0   0   0   0   1  14 100 61 60 58 57 50 49 47 43 41 36 32 29 22 
   7   0   0   0   0   0   0   0   0   0   0   0   0   0   0   0   0   0   5   0   0   1   0   0   0   0   0   0   0   0   0  12 70 62 61 57 49 47 45 44 41 39 36 19 
   8   0   0   0   0   0   0   1   0   0   0   0   0   0   1   0   0   0   0   0   0   0   0   0   0   0   0   0   1   0   0  16 101 100 92 70 63 62 60 58 56 52 50 49 48 47 39 30 
   7   0   0   0   0   0   0   0   0   0   0   1   0   0   0   0   0   0   0   0   0   0   0   0   0   0   0   0   0   0   0  15 100 98 96 95 73 71 70 66 59 58 50 49 41 39 28 
   4   0   0   0   0   0   0   0   0   0   0   0   0   2   0   0   0   1   0   0   0   0   0   0   0   0   4   0   0   0   0  10 101 71 70 68 57 55 51 46 40 20 
  10   8   1   0   0   0   0   0   0   0   0   0   0   0   0   0   1   8   0   0   0   0   0   0   0   1   0   0   0   0   0  18 100 99 98 95 73 71 69 68 66 63 61 59 52 49 47 45 41 39 
   5   0   9   0   0   1   0   7   0   0   1   0   0   0   0   0   0   0   0   0   0   0   0   0   0   0   0   0   0   1   0  18 99 96 95 73 72 71 67 63 61 60 59 56 55 53 51 46 41 40 
   7   2   0   0   0   0   0   0   0   0   9   0   0   0   0   0   0   0   0   0   0   0   0   0   2   0   0   0   0   0   5  13 96 95 71 70 66 60 59 56 49 46 45 37 28 
   7   0   0   1   2   0   0   0   0   0   3   0   0   0   0   0   0   8   0   0   0   0   0   0   0   6   0   0   0   0   0  15 99 98 95 90 73 70 69 63 60 57 53 47 46 40 39 
   6   0   0   0   0   0   0   0   0   0   0   0   2   8   0   0   0   0   0   0   1   0   0   0   7   0   0   0   0   0   0  16 101 99 98 96 95 92 73 69 68 64 63 62 56 51 50 39 
   7   0   0   0   0   0   0   0   0   0   0   0   6   0   0   0   0   0   0   0   0   7   0   2   0   0   0   0   0   0   0  20 99 97 95 94 93 90 86 73 71 69 68 66 65 64 63 62 60 57 56 47 
   3   0   0   0   0   0   0   0   0   0   0   0   0   0   0   0   0   4   0   0   0   0   0   0   0   3   0   0   0   4   0  19 101 100 99 98 96 93 89 86 71 68 67 66 65 63 58 57 56 51 45 
   6   0   0  10   0   0   6   0   0   0   0   0   0   6   0   0   0   0  10   0   0   0   0   0   0   0   5   1   0   0   0  17 101 100 99 98 97 96 95 89 73 68 67 65 57 56 54 53 43 
   4   0   0   0   0   0   5   0   0   0   0   0   0   0   0   0   0   0   0   0   0   0   0   0   0   0   0   4   0   0   0  16 101 100 96 95 86 73 70 68 66 65 64 63 62 58 53 39 
   5   0   0   0   0   0   0   0   0   0   0   0   0   0   6   1   0   0   0   0   0   0   7   0   0   0   0   0   0   6   0  18 101 99 96 95 93 91 87 83 72 71 69 64 60 59 56 55 54 50 
   9   0   0   7   0   0   0   6   0   2   0   0   0   0   0   0   0   0   0   0   0   0   0   0   0   0   0   0   6   0   0  17 101 98 96 93 92 73 72 71 67 64 63 60 59 56 55 42 40 
   4   7   0   0   0   0   0   0   0   0   0   0   0   0   5   0   0   0   7   0   0   0   0   0   0   0   0   0   0   0   0  13 100 99 94 86 73 66 63 62 55 53 51 49 43 
  10   0   0   0   0   0   0   0   0   0   0   0   0   0   0   0   0   0   0   1   0   0   0   4   0   0   4   0   5   0   8  15 100 99 98 96 95 82 68 65 63 60 59 56 55 54 51 
  10   4   0   6   0   0   0   0   0   0   2   0   0   0   7   0   0   0   0   0   0   0   0   0   0   0   0   0   0   0   0  19 99 98 97 95 94 92 90 89 87 86 80 73 67 63 61 60 59 56 49 
   5   0   0   0   7   0   0   0   0   0   0   0   0   0   0   5   0   0   0   5   0   0   0   0   0   0   0   4   0   0   0  18 100 99 98 96 95 94 93 92 86 72 67 66 65 61 59 56 55 51 
  10   0   0   3   0   0   4   0   0   0   0   0   0   6   0   0   8   0   0   0   0   0   0   0   7   0   0   0   0   0   0  16 98 96 95 94 93 86 83 80 73 72 69 65 63 59 56 51 
   8   0   0   5   0   0   0   0   0   0   6   0   0   0   0   0   0   0   0   0   0   5   0   6   5   0   7   3   0   4   0  21 100 99 97 96 95 94 93 90 89 88 87 86 85 80 74 72 71 68 64 63 61 
  10   0   0   0   6   0   0   0   4   0   0   0   0   0   0  10   0   0   0   0   0   0   8   0   0   0   0   0   7   0   0  17 101 98 96 95 93 92 90 87 86 84 82 71 68 67 65 64 55 
   2   0   0   0   0   0   7   0   0   0   0   0   0   3   0   0   0   0   0   0   0   0   6   0   5   0   0   8   0   0   0  15 100 96 95 91 90 86 77 73 72 71 67 66 65 64 45 
   5   0   0   0   0   0   0   0   0   0   0   0   0   0   0   0   0   0   0   0   0   0   0   0   3   0   0  10   7   0   0  22 101 100 99 98 97 96 95 93 92 90 88 87 86 84 83 81 79 75 73 71 66 55 
   8   0   0   0   5   0   0   0   0   0   0   0   0   0   6   0   0   0   0   0   0  10   5   0   6   0   0   0   0   0   0  13 98 95 92 90 89 86 74 72 71 67 66 63 49 
   6   9   0   7   0   0   0   0   0   0  10   0   0   5   5   0   4   0   0   0   0   0   0   3   0   0   0   0   0   4   0  10 99 92 89 84 68 67 65 63 57 51 
   6   0   0   0   0   0   0   0   0   5   0   6   0   0   0   9   0   0   0   0   0   0   0   0   0   0   0   0   0   0   0   9 95 87 84 81 75 68 66 63 39 
  10   0   0   0   0   0   9   7   0   0   0   0   0   0   0   0   0   0   0   0   0   9   0   0   0   0   5   0   0   0   0  16 99 98 97 95 90 89 88 87 83 82 81 74 71 69 66 61 
   1   0   0   0   0   0   0   0   0   0   8   0   8   0   9   0   0   0   0   0   6   0   0   0   0   0   0   0   0   0   0  16 96 95 94 92 91 89 87 85 83 79 78 77 72 66 65 56 
   9   0   0   0   0   0   0   0   7   0   0   0   3   8   5   0   0   0   0   0   0   0   5   0   0   6   0   0   0   0   0  16 101 96 95 94 92 91 87 85 84 82 81 79 78 70 65 55 
   3   0   0  10   0   0   0   0   0   0   6   5   0   7   0   0   0   0   8   0   0   0   0   0   0   8   0   0   0   8   0  12 96 94 92 86 83 73 72 71 69 64 63 56 
   6   7   0   0   0   0   0   0   0   0   0   0   0   5   0   0   0   0   0   0   0   0   0   0  10   0   0   0   0   0  10  17 100 98 97 94 93 87 86 85 84 83 80 79 78 77 74 72 65 
  10   0   5   0   0   0   0   5   0   5   0   0   0   0   0   0   6   0   0   0   0   0   0   0   0   0   0   0   0   0   0  17 98 96 92 90 88 87 86 84 83 82 81 80 79 77 74 71 65 
   5   0   0   8   0   0   0   0   0   0   0   0   0   0   0   0   0   0   0   0   0   0   0   8   0   0   0   6   0   0   0  14 95 92 90 89 84 83 81 78 77 74 69 67 66 65 
   7   0   3   0   0   8   0   0   0   0   0   0   0   0   6   0   0   0   6   0   0   0   0   0   0   0   0   4   0   0   0  13 98 92 90 87 86 85 80 78 77 76 74 68 64 
   5   0   3   7   0   0   0   0   0   6   0   0   0   5   0   0   7   0   0   0   4   0   4   0   0   0   0   0   0   0   0  12 95 93 92 90 89 87 86 82 73 70 65 61 
   2   0   0   0   0   0   0   0   0   0   0   0   0   0   0   0   0   0   0   0   0   0   0   0   0   0   0   0   0   0   0   9 94 93 91 83 82 79 78 67 55 
   7   0   0   6   0   6   0   0   0   0   0   0   0   0   0   0   0   0   0   0   9   0   0   0   0   0   8   0   0   0   0  13 100 91 86 85 84 83 82 81 79 77 75 74 66 
   7   0   0   0   0   0   0   0   0   0   6   0   0   5   0   0   0   0   0   0   0   0   0  10   0   0   0   0  10   0   0  11 101 92 91 89 86 84 83 80 76 74 64 
   8   0   0   7   0   0   0   0   7   0   0   0   0   0   0   0   0   0   0   7   0   0   0   0   0   0   0  10   0   0   0  12 90 88 85 84 81 80 79 78 77 76 75 74 
   3   0   0   0   0   0   0   0   0   7   0   0   0   0   0   7   0   0   0   0   0   0   0   0   0   0   0   5   0   9   0  11 92 90 87 84 82 80 79 77 75 74 71 
   4   0   0   0   0   0   0   0   0   0   0   0   0   0   0   8   0   0   0   0   0   0   0   0   0   0   0   0   0   0   0  11 99 92 89 86 85 80 76 75 74 73 71 
   6   0   0   0   0   0   0   0   0   0   0   0   0   0   0   2   0   0   0   0   0   0   0   0   0   0   0   0   0   0   0  11 94 92 88 87 83 82 81 80 79 76 74 
  10   0   0   0   4   0   0   0   0   0   0   0   0   0   0   0   0   0   3   0   0   0   0   4   0   0   0   2   0   0   0   9 100 97 94 93 86 81 77 74 65 
   3   6   0   0   0   0   0   0   0   0   0   0   0   0  10   0   0   0   0   0   0   0   0   0   0   0   0   9   0   0   0   6 96 88 87 78 75 55 
   9   0   0   0   0   7   0   0   0   0   0   0   0   0   0   0   0   0   0   5   0   0   0   5   0   6   0   0   0   4   0   6 91 87 82 78 75 55 
  10   0   0   0   0   0  10   0   0   0   0   3   0   0   0   0   7   0   0   0   0   0   0   0   0   0   8   0   0   0   0   8 93 84 83 82 79 78 77 65 
  10   0   0   0   0   0   0   8   0   0  10   0   0   0   0   5   0   0   0   0   0   0   0   0   0   8   0   0   0   0   0   8 90 88 86 81 78 77 74 65 
   8   0   0   0   0   0   0   0   0   0   0   0   0   0   8   0   0   0   0   0   0   0   0   4   0   4   0   0   0  10   0   9 97 90 88 87 81 79 78 77 75 
   6   0   0   7   0   0   0   0   0   5   0   0   0   0   0   6  10   0   0   0   0   0   0   0   0   0   0   8   0   0   0   9 90 87 86 83 82 81 77 76 74 
   3   0   9   0   0   0   0   0   0   0   0   0   0   0   0   0   0   9   0   0   0   0   0   0   0   0   0   0   0   0   0   8 93 92 85 83 82 78 75 74 
   5   5   0   0   0   0   0   0   0   4   0   0   0   6   0   0   0   0   0   5   0   0   0   0   8   0   0   0   0   0   0   5 94 86 85 77 66 
   3   0   0   0   0   0   0   0   0   0   0   0   0   0   0   0   0   0   0   0   0   0   0   0   0   4   0   0   0   0   0   5 89 80 77 76 74 
   7   0   0   0   0   0   0   0   0   0   0   0   0   0   0   7   0   6   0   0   8   0   0   0   6   0   0   0   0   0   0   5 84 81 76 75 74 
   3   0   8   0   4   0   6   8   0   0   0   7   6   0   0   0   0   5   0   0   0   0   0   0   0   0   0  10   0   0   0   5 83 81 80 79 74 
   5   0   0   0   0   0   4   0   0   0  10   0   0   0   0   0   0   0   0   0   0   0   0   6   0   0   0   0   0   0   0   4 84 81 79 72 
   4   0   0   4   0   0   0   0   0   0   0   0   0   0   0   0   0   0   7   0   0   0   9   0   0   0   0   0   0   0   6   4 78 77 76 74 
   5   0   0   0   0   0   5   0   5   0   0   0   0   0   0   0   0   0   0   8   0   0   0   0   4   0   0   0   0   0   0   4 79 77 75 74 
   8   7   0   5   0   0   0   0   0   0   0   0   0   0   0   0   6   0   0   0   6   0   6   0   0   0   0   0   0   0   0   4 84 78 77 75 
   9   0   0   0   0   0   0   0   0   0   0   7   0   0   0   0   0   0   0   0   0   0   7   6   0   0   0   0   0   0   0   3 85 78 72 
   5   0   0   0   0   0   0   0   7   0   0   0   0   0   0   0   0   0   0   0   0   0   0   0   0   0   0   8   0   0   0   3 91 79 78 
   6   0   0   0   0   0   0   0   0   0   0   5   0   0   0   0   0   0   0   0   0   0   0   0   0   0   0   0   0   0   0   3 81 79 75 
   3   0   0   6   0   0   8   0   0   0   0   8   0   0   0   0   0   0   0   7   8   0   0   0   0   9   0   0   6   0   0   2 76 75 
   9   0   0   0   0   7   0   0   0   0   5   0   0   0   0   0   0   0   0   0   0   0  10   0   0   0   0   0   0   0   7   2 80 76 
   6   0   0   0   7   0   0   0   0   0   0   0   0   0   0   0   0   0   0   0   0   0   0   0   0   0   0   0   0   0   5   2 88 85 
   6   0   0   0  10   4   0   0   0   0   0  10   0   0   0   9   4   0   0   7   9   0   0   0   0   6   0   0   0   6   0   2 91 83 
   3   0   0   0   0   0   0   0   0   0   0   0   0   0   0   0   0   0   0   0   0   4   0   0   0   0  10   0   0   3   0   2 85 79 
   2   0   0   0   0   0   0   0   0   0   0   0   0   0   0   0   0   0   0   0   4   0   0   9   0   0   5   0   0   0   0   2 77 74 
   6   0   0   0   0   0   0   0   0   0   0   0   0   0   0   0   0   0   4   0   0   0   0   0   2   0   0   0   0   0   0   1 78 
   9   0   0   0   0   0   0   0   0   0   0   5   0   0   0   0   0   0   0   0   0   4   0   0   0   7   0   5   0   0   0   1 82 
  10   0   6   0   0   0   0   7  10   0   0   0   0   0   0   0   0   0   0   5   0   0   0   0   0   0   0   0   0   5   0   1 78 
   1   0   0   0   0   0   0   0   0   0   8   0   0   0   0   0   0   5   0  10   0   0   4   0   0   7   0  10   0   8   0   1 102
   9   0   0   0   0   0   0   0   0   0   0   0  10   0   0   5   0   0   0   0   0   0   0   0   0   0   0   0   0   0   0   1 102
   1   0   0   5   0   5   9   0   0   9   7   0   0   0   0   0   0   0   0   0   0   0   0   0  10   5   0   0   0   5   0   1 102
   8   0   0   0   0   0   0   6   0   7   0   0   0   0   0   0   5   0   0   0   0   0   0   0   7   0   0   0   9   5   0   1 102
   9   0   0   0   0   0   4   0   0   9   0   0   0   0   0   0   0   0   3   0   0   0   0   0   0   4   0   0   6   0   9   1 102
   5   0   0   0   0   0   0   0   0   0   0   0   0   0   0   5   0   0   0   0   0   0   0   0   0   0   0   0   0   0   0   1 102
   1   0   0   0   0   0   0   6   0   0   3   0   5   0   0   0   0   0   0   0   0   0   0   0   0   8   0   0   0   0   0   1 102
   1   0   0   0   0   0   0   0   0   0   4   0   0   0   0   5   0   0   0   0   0   0   0   0   0   0   0   0   7   0   6   1 102
   6   0   0   0   0   0   0   4   0   0   0   0   0   0   0   0   0   0   0   0   5   0   0   0   0   7   0   0   0   0   0   1 102
   5   0   0   0   0   0   0   0   0   0   0   0   0   0   0   0   0   0   0   0   0   0   0   0   8   0   0   0   0   0   0   1 102
   7   8   0   0   0   0   0   4   0   0   0   0   0   0   0   0   0   0   0   0   0   0   0   0   0   0   0   0   0   0   0   1 102
   2   0   0   0   5   9   0   0   0   0   0  10   0   0   0   0   0   0   0   0   0   0   0   0   6   0   0   0   0   0   0   1 102
   4   0   0   5   0   0   0   0   0   0   0   0   0   0   0   0   0   0   0   0   0   7   0   0   0   0   0   0   0  10   0   1 102
   3   0   8   0   0   0   0   0   0   0   0   5   0   8   0   0   0   0   0   0   0   0   0   9   0   0   0   0   0   0   0   1 102
   6   0   8   0   0   0   0   0   0   0   0   0   9   0   0   0   0   0   0   0   0   0   0   0   0   0   0   0   0   9   0   1 102
   5   0   0   0   0   0   0   0   0   0   0   0   0   0   0   0   0   0   0   0   0   0   0   0   0   0   0   0   0   0   2   1 102
   4   0   0   0   0   0   0   0   0   0   5   0   0   0   0   0   0   0   0   0   5   0   0   0   0   0   0   0   0   0   0   1 102
   3   8   0   0   0   7   0   0   0   5   0   0   5  10   0   0   0   0   0   0   0   0   0   0   0   0   0   0   4   0   0   1 102
   3   0   0   0   0   0   0   0   0   0   0   0   0   0   0   0   0   0   0   0   0   7   0   3   0   0   0   0   0   0   0   1 102
   5   0   0   0   0   0   0   0   0   0   0   0   0   0   0   0   0   9   0   0   0   0   0   0   0   0   0   4   0   0   0   1 102
   3   0   0   0   0   0   0   0   0   0   0   0   0   0   0   0   0   0   0   0   8   6   0   0   0   0   0   0   0   0   0   1 102
   1   0   0   5   0   0   0   0   0   0   0   0   0   0   3   0   0   0  10   0   0   0   0  10   0   0   0   0   0   0   0   1 102
   4   0   0   0   0   0   0   0   0   0   0   0   0   0   0   0   0   0   0   0   5   0   0   0   0   0   0   0   0   0   0   1 102
  10   0   0   0   0   0   0   0   0  10   0   0   0   0   0   0   0   0   0   0   5   0   0   0   0   0   0   3   3   0   0   1 102
   3   0   0   0  10   0   0   0   0   0   0   0   0   0   0   0   0   0   0   0   0   0   0   0   0   8   0   0   0   0   0   1 102
  10   0   0   0   0   0   0   9   0   0   0   0   0   0   0   0   8   5   0   0   0   0   5   0   0   0   0   0   0   0   7   1 102
   4   0   0   0   0   0   0   0   0   0   5   0   0   0   7   0   0   0   8   0   7   0   0   7   0   0   4   0   7   0   0   1 102
  10   0   0   0   0   0   0   0   0   4   0   0   6   0   0   0   0   0   0   0   0   0   0   0   0   7   0   0   0   7   0   1 102
   0   0   0   0   0   0   0   0   0   0   0   0   0   0   0   0   0   0   0   0   0   0   0   0   0   0   0   0   0   0   0   0 
